p tw 160 32801 2 
1 82 
1 84 
1 85 
1 88 
1 89 
1 91 
1 94 
1 95 
1 98 
1 100 
1 101 
1 103 
1 105 
1 108 
1 109 
1 111 
1 113 
1 115 
1 117 
1 119 
1 122 
1 123 
1 125 
1 127 
1 130 
1 131 
1 133 
1 135 
1 137 
1 139 
1 141 
1 143 
1 145 
1 147 
1 149 
1 151 
1 153 
1 156 
1 157 
1 159 
2 81 
2 83 
2 86 
2 87 
2 90 
2 92 
2 93 
2 96 
2 97 
2 99 
2 102 
2 104 
2 106 
2 107 
2 110 
2 112 
2 114 
2 116 
2 118 
2 120 
2 121 
2 124 
2 126 
2 128 
2 129 
2 132 
2 134 
2 136 
2 138 
2 140 
2 142 
2 144 
2 146 
2 148 
2 150 
2 152 
2 154 
2 155 
2 158 
2 160 
3 4 
3 82 
3 84 
3 86 
3 88 
3 90 
3 91 
3 94 
3 96 
3 98 
3 100 
3 102 
3 104 
3 106 
3 108 
3 110 
3 111 
3 114 
3 116 
3 118 
3 119 
3 122 
3 123 
3 125 
3 128 
3 130 
3 131 
3 134 
3 135 
3 137 
3 140 
3 141 
3 144 
3 146 
3 147 
3 150 
3 152 
3 154 
3 156 
3 158 
3 160 
4 81 
4 83 
4 85 
4 87 
4 89 
4 92 
4 93 
4 95 
4 97 
4 99 
4 101 
4 103 
4 105 
4 107 
4 109 
4 112 
4 113 
4 115 
4 117 
4 120 
4 121 
4 124 
4 126 
4 127 
4 129 
4 132 
4 133 
4 136 
4 138 
4 139 
4 142 
4 143 
4 145 
4 148 
4 149 
4 151 
4 153 
4 155 
4 157 
4 159 
5 6 
5 81 
5 84 
5 86 
5 87 
5 90 
5 91 
5 94 
5 95 
5 98 
5 100 
5 102 
5 103 
5 105 
5 107 
5 109 
5 111 
5 114 
5 115 
5 118 
5 120 
5 121 
5 124 
5 125 
5 128 
5 130 
5 132 
5 133 
5 136 
5 138 
5 140 
5 141 
5 143 
5 146 
5 147 
5 149 
5 152 
5 153 
5 155 
5 157 
5 160 
6 82 
6 83 
6 85 
6 88 
6 89 
6 92 
6 93 
6 96 
6 97 
6 99 
6 101 
6 104 
6 106 
6 108 
6 110 
6 112 
6 113 
6 116 
6 117 
6 119 
6 122 
6 123 
6 126 
6 127 
6 129 
6 131 
6 134 
6 135 
6 137 
6 139 
6 142 
6 144 
6 145 
6 148 
6 150 
6 151 
6 154 
6 156 
6 158 
6 159 
7 8 
7 82 
7 84 
7 85 
7 87 
7 90 
7 92 
7 94 
7 95 
7 97 
7 100 
7 102 
7 104 
7 105 
7 107 
7 110 
7 111 
7 113 
7 116 
7 117 
7 119 
7 122 
7 123 
7 126 
7 128 
7 129 
7 132 
7 134 
7 136 
7 137 
7 139 
7 142 
7 144 
7 145 
7 147 
7 149 
7 152 
7 153 
7 155 
7 157 
7 160 
8 81 
8 83 
8 86 
8 88 
8 89 
8 91 
8 93 
8 96 
8 98 
8 99 
8 101 
8 103 
8 106 
8 108 
8 109 
8 112 
8 114 
8 115 
8 118 
8 120 
8 121 
8 124 
8 125 
8 127 
8 130 
8 131 
8 133 
8 135 
8 138 
8 140 
8 141 
8 143 
8 146 
8 148 
8 150 
8 151 
8 154 
8 156 
8 158 
8 159 
9 10 
9 81 
9 83 
9 85 
9 88 
9 89 
9 92 
9 94 
9 96 
9 98 
9 100 
9 102 
9 103 
9 106 
9 107 
9 110 
9 111 
9 113 
9 115 
9 117 
9 119 
9 121 
9 124 
9 125 
9 127 
9 129 
9 132 
9 134 
9 136 
9 138 
9 139 
9 141 
9 144 
9 146 
9 147 
9 150 
9 151 
9 153 
9 156 
9 158 
9 160 
10 82 
10 84 
10 86 
10 87 
10 90 
10 91 
10 93 
10 95 
10 97 
10 99 
10 101 
10 104 
10 105 
10 108 
10 109 
10 112 
10 114 
10 116 
10 118 
10 120 
10 122 
10 123 
10 126 
10 128 
10 130 
10 131 
10 133 
10 135 
10 137 
10 140 
10 142 
10 143 
10 145 
10 148 
10 149 
10 152 
10 154 
10 155 
10 157 
10 159 
11 12 
11 81 
11 83 
11 86 
11 87 
11 89 
11 92 
11 94 
11 96 
11 97 
11 100 
11 101 
11 104 
11 105 
11 108 
11 110 
11 111 
11 114 
11 115 
11 118 
11 120 
11 122 
11 123 
11 125 
11 127 
11 130 
11 132 
11 133 
11 136 
11 137 
11 139 
11 142 
11 143 
11 145 
11 147 
11 150 
11 151 
11 154 
11 155 
11 158 
11 160 
12 82 
12 84 
12 85 
12 88 
12 90 
12 91 
12 93 
12 95 
12 98 
12 99 
12 102 
12 103 
12 106 
12 107 
12 109 
12 112 
12 113 
12 116 
12 117 
12 119 
12 121 
12 124 
12 126 
12 128 
12 129 
12 131 
12 134 
12 135 
12 138 
12 140 
12 141 
12 144 
12 146 
12 148 
12 149 
12 152 
12 153 
12 156 
12 157 
12 159 
13 14 
13 82 
13 83 
13 86 
13 87 
13 90 
13 91 
13 94 
13 95 
13 98 
13 100 
13 101 
13 104 
13 106 
13 108 
13 109 
13 111 
13 114 
13 116 
13 117 
13 119 
13 121 
13 124 
13 126 
13 127 
13 129 
13 132 
13 133 
13 135 
13 138 
13 139 
13 142 
13 144 
13 146 
13 147 
13 150 
13 151 
13 154 
13 155 
13 157 
13 159 
14 81 
14 84 
14 85 
14 88 
14 89 
14 92 
14 93 
14 96 
14 97 
14 99 
14 102 
14 103 
14 105 
14 107 
14 110 
14 112 
14 113 
14 115 
14 118 
14 120 
14 122 
14 123 
14 125 
14 128 
14 130 
14 131 
14 134 
14 136 
14 137 
14 140 
14 141 
14 143 
14 145 
14 148 
14 149 
14 152 
14 153 
14 156 
14 158 
14 160 
15 16 
15 81 
15 83 
15 85 
15 88 
15 90 
15 92 
15 93 
15 96 
15 98 
15 100 
15 101 
15 103 
15 105 
15 107 
15 109 
15 112 
15 114 
15 116 
15 118 
15 119 
15 122 
15 123 
15 126 
15 127 
15 130 
15 132 
15 134 
15 135 
15 138 
15 140 
15 141 
15 144 
15 145 
15 147 
15 149 
15 151 
15 154 
15 155 
15 157 
15 160 
16 82 
16 84 
16 86 
16 87 
16 89 
16 91 
16 94 
16 95 
16 97 
16 99 
16 102 
16 104 
16 106 
16 108 
16 110 
16 111 
16 113 
16 115 
16 117 
16 120 
16 121 
16 124 
16 125 
16 128 
16 129 
16 131 
16 133 
16 136 
16 137 
16 139 
16 142 
16 143 
16 146 
16 148 
16 150 
16 152 
16 153 
16 156 
16 158 
16 159 
17 18 
17 81 
17 84 
17 85 
17 88 
17 90 
17 91 
17 93 
17 95 
17 97 
17 99 
17 101 
17 104 
17 106 
17 107 
17 110 
17 111 
17 114 
17 115 
17 117 
17 119 
17 122 
17 124 
17 126 
17 128 
17 130 
17 132 
17 133 
17 135 
17 138 
17 140 
17 142 
17 143 
17 145 
17 147 
17 150 
17 151 
17 153 
17 156 
17 158 
17 160 
18 82 
18 83 
18 86 
18 87 
18 89 
18 92 
18 94 
18 96 
18 98 
18 100 
18 102 
18 103 
18 105 
18 108 
18 109 
18 112 
18 113 
18 116 
18 118 
18 120 
18 121 
18 123 
18 125 
18 127 
18 129 
18 131 
18 134 
18 136 
18 137 
18 139 
18 141 
18 144 
18 146 
18 148 
18 149 
18 152 
18 154 
18 155 
18 157 
18 159 
19 20 
19 81 
19 84 
19 85 
19 87 
19 89 
19 92 
19 94 
19 95 
19 98 
19 99 
19 101 
19 103 
19 106 
19 108 
19 110 
19 111 
19 114 
19 116 
19 118 
19 119 
19 121 
19 124 
19 125 
19 127 
19 130 
19 132 
19 134 
19 135 
19 137 
19 140 
19 142 
19 144 
19 145 
19 148 
19 149 
19 152 
19 153 
19 155 
19 158 
19 159 
20 82 
20 83 
20 86 
20 88 
20 90 
20 91 
20 93 
20 96 
20 97 
20 100 
20 102 
20 104 
20 105 
20 107 
20 109 
20 112 
20 113 
20 115 
20 117 
20 120 
20 122 
20 123 
20 126 
20 128 
20 129 
20 131 
20 133 
20 136 
20 138 
20 139 
20 141 
20 143 
20 146 
20 147 
20 150 
20 151 
20 154 
20 156 
20 157 
20 160 
21 22 
21 81 
21 84 
21 85 
21 87 
21 89 
21 91 
21 93 
21 95 
21 98 
21 100 
21 101 
21 103 
21 106 
21 108 
21 109 
21 112 
21 114 
21 116 
21 117 
21 120 
21 121 
21 123 
21 126 
21 128 
21 129 
21 132 
21 134 
21 136 
21 137 
21 139 
21 141 
21 143 
21 145 
21 147 
21 150 
21 152 
21 154 
21 156 
21 158 
21 160 
22 82 
22 83 
22 86 
22 88 
22 90 
22 92 
22 94 
22 96 
22 97 
22 99 
22 102 
22 104 
22 105 
22 107 
22 110 
22 111 
22 113 
22 115 
22 118 
22 119 
22 122 
22 124 
22 125 
22 127 
22 130 
22 131 
22 133 
22 135 
22 138 
22 140 
22 142 
22 144 
22 146 
22 148 
22 149 
22 151 
22 153 
22 155 
22 157 
22 159 
23 24 
23 82 
23 84 
23 86 
23 87 
23 89 
23 92 
23 93 
23 96 
23 97 
23 99 
23 102 
23 103 
23 106 
23 108 
23 109 
23 111 
23 113 
23 116 
23 117 
23 119 
23 122 
23 124 
23 125 
23 128 
23 130 
23 132 
23 134 
23 136 
23 138 
23 140 
23 141 
23 143 
23 145 
23 147 
23 150 
23 151 
23 154 
23 155 
23 157 
23 159 
24 81 
24 83 
24 85 
24 88 
24 90 
24 91 
24 94 
24 95 
24 98 
24 100 
24 101 
24 104 
24 105 
24 107 
24 110 
24 112 
24 114 
24 115 
24 118 
24 120 
24 121 
24 123 
24 126 
24 127 
24 129 
24 131 
24 133 
24 135 
24 137 
24 139 
24 142 
24 144 
24 146 
24 148 
24 149 
24 152 
24 153 
24 156 
24 158 
24 160 
25 26 
25 82 
25 84 
25 85 
25 88 
25 89 
25 92 
25 93 
25 96 
25 98 
25 99 
25 101 
25 104 
25 105 
25 107 
25 109 
25 111 
25 114 
25 116 
25 118 
25 120 
25 121 
25 123 
25 125 
25 128 
25 129 
25 132 
25 133 
25 136 
25 137 
25 140 
25 142 
25 144 
25 146 
25 147 
25 150 
25 151 
25 153 
25 156 
25 157 
25 159 
26 81 
26 83 
26 86 
26 87 
26 90 
26 91 
26 94 
26 95 
26 97 
26 100 
26 102 
26 103 
26 106 
26 108 
26 110 
26 112 
26 113 
26 115 
26 117 
26 119 
26 122 
26 124 
26 126 
26 127 
26 130 
26 131 
26 134 
26 135 
26 138 
26 139 
26 141 
26 143 
26 145 
26 148 
26 149 
26 152 
26 154 
26 155 
26 158 
26 160 
27 28 
27 81 
27 83 
27 85 
27 87 
27 89 
27 92 
27 94 
27 95 
27 98 
27 99 
27 102 
27 104 
27 106 
27 107 
27 110 
27 112 
27 114 
27 116 
27 118 
27 119 
27 122 
27 124 
27 126 
27 128 
27 130 
27 131 
27 133 
27 136 
27 137 
27 139 
27 141 
27 143 
27 146 
27 147 
27 149 
27 151 
27 154 
27 156 
27 157 
27 159 
28 82 
28 84 
28 86 
28 88 
28 90 
28 91 
28 93 
28 96 
28 97 
28 100 
28 101 
28 103 
28 105 
28 108 
28 109 
28 111 
28 113 
28 115 
28 117 
28 120 
28 121 
28 123 
28 125 
28 127 
28 129 
28 132 
28 134 
28 135 
28 138 
28 140 
28 142 
28 144 
28 145 
28 148 
28 150 
28 152 
28 153 
28 155 
28 158 
28 160 
29 30 
29 81 
29 84 
29 85 
29 87 
29 89 
29 91 
29 94 
29 96 
29 97 
29 99 
29 101 
29 104 
29 105 
29 108 
29 109 
29 112 
29 114 
29 115 
29 117 
29 119 
29 122 
29 124 
29 125 
29 127 
29 129 
29 131 
29 134 
29 136 
29 138 
29 140 
29 142 
29 144 
29 146 
29 147 
29 149 
29 152 
29 154 
29 156 
29 157 
29 160 
30 82 
30 83 
30 86 
30 88 
30 90 
30 92 
30 93 
30 95 
30 98 
30 100 
30 102 
30 103 
30 106 
30 107 
30 110 
30 111 
30 113 
30 116 
30 118 
30 120 
30 121 
30 123 
30 126 
30 128 
30 130 
30 132 
30 133 
30 135 
30 137 
30 139 
30 141 
30 143 
30 145 
30 148 
30 150 
30 151 
30 153 
30 155 
30 158 
30 159 
31 32 
31 81 
31 83 
31 85 
31 87 
31 90 
31 91 
31 94 
31 96 
31 98 
31 99 
31 101 
31 103 
31 105 
31 107 
31 110 
31 111 
31 113 
31 116 
31 117 
31 120 
31 122 
31 123 
31 125 
31 128 
31 130 
31 132 
31 134 
31 135 
31 138 
31 139 
31 142 
31 143 
31 146 
31 148 
31 150 
31 152 
31 154 
31 156 
31 157 
31 159 
32 82 
32 84 
32 86 
32 88 
32 89 
32 92 
32 93 
32 95 
32 97 
32 100 
32 102 
32 104 
32 106 
32 108 
32 109 
32 112 
32 114 
32 115 
32 118 
32 119 
32 121 
32 124 
32 126 
32 127 
32 129 
32 131 
32 133 
32 136 
32 137 
32 140 
32 141 
32 144 
32 145 
32 147 
32 149 
32 151 
32 153 
32 155 
32 158 
32 160 
33 34 
33 82 
33 84 
33 86 
33 87 
33 90 
33 92 
33 94 
33 96 
33 97 
33 99 
33 101 
33 103 
33 105 
33 108 
33 110 
33 112 
33 114 
33 115 
33 118 
33 119 
33 121 
33 123 
33 126 
33 128 
33 129 
33 132 
33 134 
33 135 
33 138 
33 139 
33 141 
33 143 
33 146 
33 147 
33 149 
33 151 
33 153 
33 156 
33 158 
33 159 
34 81 
34 83 
34 85 
34 88 
34 89 
34 91 
34 93 
34 95 
34 98 
34 100 
34 102 
34 104 
34 106 
34 107 
34 109 
34 111 
34 113 
34 116 
34 117 
34 120 
34 122 
34 124 
34 125 
34 127 
34 130 
34 131 
34 133 
34 136 
34 137 
34 140 
34 142 
34 144 
34 145 
34 148 
34 150 
34 152 
34 154 
34 155 
34 157 
34 160 
35 36 
35 82 
35 84 
35 85 
35 88 
35 89 
35 91 
35 94 
35 96 
35 97 
35 99 
35 101 
35 104 
35 106 
35 107 
35 109 
35 111 
35 113 
35 116 
35 118 
35 119 
35 121 
35 123 
35 126 
35 127 
35 130 
35 132 
35 133 
35 136 
35 138 
35 139 
35 141 
35 143 
35 146 
35 148 
35 149 
35 152 
35 154 
35 155 
35 158 
35 160 
36 81 
36 83 
36 86 
36 87 
36 90 
36 92 
36 93 
36 95 
36 98 
36 100 
36 102 
36 103 
36 105 
36 108 
36 110 
36 112 
36 114 
36 115 
36 117 
36 120 
36 122 
36 124 
36 125 
36 128 
36 129 
36 131 
36 134 
36 135 
36 137 
36 140 
36 142 
36 144 
36 145 
36 147 
36 150 
36 151 
36 153 
36 156 
36 157 
36 159 
37 38 
37 82 
37 84 
37 86 
37 87 
37 90 
37 91 
37 93 
37 96 
37 98 
37 99 
37 101 
37 103 
37 106 
37 107 
37 110 
37 111 
37 113 
37 115 
37 118 
37 120 
37 121 
37 124 
37 126 
37 127 
37 130 
37 131 
37 134 
37 136 
37 137 
37 139 
37 142 
37 144 
37 145 
37 147 
37 149 
37 151 
37 154 
37 156 
37 157 
37 160 
38 81 
38 83 
38 85 
38 88 
38 89 
38 92 
38 94 
38 95 
38 97 
38 100 
38 102 
38 104 
38 105 
38 108 
38 109 
38 112 
38 114 
38 116 
38 117 
38 119 
38 122 
38 123 
38 125 
38 128 
38 129 
38 132 
38 133 
38 135 
38 138 
38 140 
38 141 
38 143 
38 146 
38 148 
38 150 
38 152 
38 153 
38 155 
38 158 
38 159 
39 40 
39 82 
39 83 
39 85 
39 88 
39 90 
39 92 
39 94 
39 95 
39 98 
39 99 
39 101 
39 104 
39 106 
39 108 
39 110 
39 111 
39 114 
39 115 
39 117 
39 120 
39 121 
39 123 
39 125 
39 128 
39 129 
39 131 
39 134 
39 136 
39 138 
39 140 
39 141 
39 143 
39 145 
39 148 
39 149 
39 151 
39 154 
39 155 
39 157 
39 160 
40 81 
40 84 
40 86 
40 87 
40 89 
40 91 
40 93 
40 96 
40 97 
40 100 
40 102 
40 103 
40 105 
40 107 
40 109 
40 112 
40 113 
40 116 
40 118 
40 119 
40 122 
40 124 
40 126 
40 127 
40 130 
40 132 
40 133 
40 135 
40 137 
40 139 
40 142 
40 144 
40 146 
40 147 
40 150 
40 152 
40 153 
40 156 
40 158 
40 159 
41 42 
41 81 
41 83 
41 86 
41 88 
41 90 
41 92 
41 94 
41 95 
41 97 
41 99 
41 101 
41 103 
41 106 
41 108 
41 109 
41 112 
41 113 
41 116 
41 118 
41 119 
41 121 
41 123 
41 125 
41 128 
41 130 
41 131 
41 133 
41 136 
41 138 
41 139 
41 142 
41 144 
41 145 
41 147 
41 150 
41 152 
41 153 
41 156 
41 157 
41 160 
42 82 
42 84 
42 85 
42 87 
42 89 
42 91 
42 93 
42 96 
42 98 
42 100 
42 102 
42 104 
42 105 
42 107 
42 110 
42 111 
42 114 
42 115 
42 117 
42 120 
42 122 
42 124 
42 126 
42 127 
42 129 
42 132 
42 134 
42 135 
42 137 
42 140 
42 141 
42 143 
42 146 
42 148 
42 149 
42 151 
42 154 
42 155 
42 158 
42 159 
43 44 
43 81 
43 84 
43 86 
43 87 
43 90 
43 92 
43 93 
43 95 
43 97 
43 100 
43 101 
43 104 
43 106 
43 107 
43 109 
43 111 
43 114 
43 116 
43 117 
43 120 
43 122 
43 123 
43 125 
43 127 
43 130 
43 131 
43 134 
43 136 
43 138 
43 139 
43 141 
43 144 
43 146 
43 148 
43 149 
43 151 
43 153 
43 156 
43 158 
43 159 
44 82 
44 83 
44 85 
44 88 
44 89 
44 91 
44 94 
44 96 
44 98 
44 99 
44 102 
44 103 
44 105 
44 108 
44 110 
44 112 
44 113 
44 115 
44 118 
44 119 
44 121 
44 124 
44 126 
44 128 
44 129 
44 132 
44 133 
44 135 
44 137 
44 140 
44 142 
44 143 
44 145 
44 147 
44 150 
44 152 
44 154 
44 155 
44 157 
44 160 
45 46 
45 81 
45 84 
45 86 
45 88 
45 89 
45 91 
45 94 
45 95 
45 98 
45 99 
45 102 
45 104 
45 106 
45 107 
45 109 
45 112 
45 113 
45 115 
45 118 
45 120 
45 122 
45 123 
45 125 
45 128 
45 129 
45 132 
45 134 
45 135 
45 138 
45 139 
45 142 
45 144 
45 145 
45 147 
45 149 
45 151 
45 154 
45 155 
45 158 
45 159 
46 82 
46 83 
46 85 
46 87 
46 90 
46 92 
46 93 
46 96 
46 97 
46 100 
46 101 
46 103 
46 105 
46 108 
46 110 
46 111 
46 114 
46 116 
46 117 
46 119 
46 121 
46 124 
46 126 
46 127 
46 130 
46 131 
46 133 
46 136 
46 137 
46 140 
46 141 
46 143 
46 146 
46 148 
46 150 
46 152 
46 153 
46 156 
46 157 
46 160 
47 48 
47 81 
47 84 
47 86 
47 87 
47 89 
47 92 
47 94 
47 96 
47 98 
47 100 
47 101 
47 104 
47 106 
47 107 
47 109 
47 112 
47 113 
47 115 
47 117 
47 119 
47 121 
47 123 
47 126 
47 128 
47 130 
47 131 
47 134 
47 135 
47 137 
47 140 
47 142 
47 143 
47 146 
47 148 
47 150 
47 151 
47 153 
47 155 
47 157 
47 160 
48 82 
48 83 
48 85 
48 88 
48 90 
48 91 
48 93 
48 95 
48 97 
48 99 
48 102 
48 103 
48 105 
48 108 
48 110 
48 111 
48 114 
48 116 
48 118 
48 120 
48 122 
48 124 
48 125 
48 127 
48 129 
48 132 
48 133 
48 136 
48 138 
48 139 
48 141 
48 144 
48 145 
48 147 
48 149 
48 152 
48 154 
48 156 
48 158 
48 159 
49 50 
49 82 
49 84 
49 86 
49 87 
49 89 
49 92 
49 93 
49 95 
49 98 
49 99 
49 102 
49 104 
49 105 
49 107 
49 110 
49 112 
49 114 
49 115 
49 117 
49 119 
49 121 
49 123 
49 125 
49 127 
49 130 
49 132 
49 133 
49 135 
49 138 
49 139 
49 141 
49 144 
49 145 
49 148 
49 150 
49 152 
49 154 
49 156 
49 157 
49 160 
50 81 
50 83 
50 85 
50 88 
50 90 
50 91 
50 94 
50 96 
50 97 
50 100 
50 101 
50 103 
50 106 
50 108 
50 109 
50 111 
50 113 
50 116 
50 118 
50 120 
50 122 
50 124 
50 126 
50 128 
50 129 
50 131 
50 134 
50 136 
50 137 
50 140 
50 142 
50 143 
50 146 
50 147 
50 149 
50 151 
50 153 
50 155 
50 158 
50 159 
51 52 
51 82 
51 84 
51 85 
51 87 
51 89 
51 91 
51 94 
51 96 
51 97 
51 100 
51 101 
51 103 
51 106 
51 107 
51 110 
51 112 
51 114 
51 116 
51 118 
51 120 
51 122 
51 124 
51 125 
51 128 
51 129 
51 131 
51 133 
51 135 
51 138 
51 139 
51 141 
51 144 
51 145 
51 148 
51 150 
51 151 
51 153 
51 155 
51 157 
51 160 
52 81 
52 83 
52 86 
52 88 
52 90 
52 92 
52 93 
52 95 
52 98 
52 99 
52 102 
52 104 
52 105 
52 108 
52 109 
52 111 
52 113 
52 115 
52 117 
52 119 
52 121 
52 123 
52 126 
52 127 
52 130 
52 132 
52 134 
52 136 
52 137 
52 140 
52 142 
52 143 
52 146 
52 147 
52 149 
52 152 
52 154 
52 156 
52 158 
52 159 
53 54 
53 82 
53 84 
53 86 
53 88 
53 89 
53 92 
53 94 
53 95 
53 98 
53 100 
53 101 
53 103 
53 105 
53 108 
53 110 
53 112 
53 113 
53 116 
53 117 
53 120 
53 122 
53 124 
53 126 
53 128 
53 130 
53 132 
53 133 
53 136 
53 138 
53 140 
53 142 
53 144 
53 146 
53 148 
53 149 
53 151 
53 154 
53 156 
53 158 
53 160 
54 81 
54 83 
54 85 
54 87 
54 90 
54 91 
54 93 
54 96 
54 97 
54 99 
54 102 
54 104 
54 106 
54 107 
54 109 
54 111 
54 114 
54 115 
54 118 
54 119 
54 121 
54 123 
54 125 
54 127 
54 129 
54 131 
54 134 
54 135 
54 137 
54 139 
54 141 
54 143 
54 145 
54 147 
54 150 
54 152 
54 153 
54 155 
54 157 
54 159 
55 56 
55 81 
55 84 
55 86 
55 88 
55 89 
55 92 
55 93 
55 96 
55 98 
55 99 
55 102 
55 103 
55 106 
55 108 
55 110 
55 111 
55 114 
55 116 
55 117 
55 120 
55 122 
55 123 
55 126 
55 127 
55 129 
55 131 
55 133 
55 135 
55 138 
55 139 
55 142 
55 143 
55 146 
55 147 
55 149 
55 152 
55 153 
55 155 
55 157 
55 160 
56 82 
56 83 
56 85 
56 87 
56 90 
56 91 
56 94 
56 95 
56 97 
56 100 
56 101 
56 104 
56 105 
56 107 
56 109 
56 112 
56 113 
56 115 
56 118 
56 119 
56 121 
56 124 
56 125 
56 128 
56 130 
56 132 
56 134 
56 136 
56 137 
56 140 
56 141 
56 144 
56 145 
56 148 
56 150 
56 151 
56 154 
56 156 
56 158 
56 159 
57 58 
57 82 
57 83 
57 85 
57 87 
57 89 
57 91 
57 93 
57 95 
57 97 
57 100 
57 102 
57 104 
57 106 
57 108 
57 110 
57 112 
57 113 
57 116 
57 118 
57 120 
57 121 
57 123 
57 125 
57 127 
57 130 
57 132 
57 134 
57 135 
57 138 
57 140 
57 142 
57 143 
57 146 
57 147 
57 149 
57 151 
57 153 
57 156 
57 157 
57 160 
58 81 
58 84 
58 86 
58 88 
58 90 
58 92 
58 94 
58 96 
58 98 
58 99 
58 101 
58 103 
58 105 
58 107 
58 109 
58 111 
58 114 
58 115 
58 117 
58 119 
58 122 
58 124 
58 126 
58 128 
58 129 
58 131 
58 133 
58 136 
58 137 
58 139 
58 141 
58 144 
58 145 
58 148 
58 150 
58 152 
58 154 
58 155 
58 158 
58 159 
59 60 
59 81 
59 84 
59 85 
59 88 
59 89 
59 91 
59 93 
59 95 
59 97 
59 100 
59 102 
59 103 
59 105 
59 108 
59 110 
59 111 
59 114 
59 115 
59 118 
59 119 
59 121 
59 123 
59 126 
59 128 
59 130 
59 131 
59 134 
59 136 
59 138 
59 139 
59 142 
59 144 
59 146 
59 148 
59 150 
59 151 
59 154 
59 155 
59 157 
59 159 
60 82 
60 83 
60 86 
60 87 
60 90 
60 92 
60 94 
60 96 
60 98 
60 99 
60 101 
60 104 
60 106 
60 107 
60 109 
60 112 
60 113 
60 116 
60 117 
60 120 
60 122 
60 124 
60 125 
60 127 
60 129 
60 132 
60 133 
60 135 
60 137 
60 140 
60 141 
60 143 
60 145 
60 147 
60 149 
60 152 
60 153 
60 156 
60 158 
60 160 
61 62 
61 81 
61 84 
61 86 
61 88 
61 90 
61 91 
61 94 
61 96 
61 97 
61 100 
61 102 
61 103 
61 106 
61 107 
61 110 
61 112 
61 114 
61 116 
61 117 
61 119 
61 121 
61 123 
61 125 
61 127 
61 129 
61 132 
61 133 
61 136 
61 137 
61 140 
61 142 
61 143 
61 145 
61 148 
61 149 
61 151 
61 154 
61 156 
61 157 
61 159 
62 82 
62 83 
62 85 
62 87 
62 89 
62 92 
62 93 
62 95 
62 98 
62 99 
62 101 
62 104 
62 105 
62 108 
62 109 
62 111 
62 113 
62 115 
62 118 
62 120 
62 122 
62 124 
62 126 
62 128 
62 130 
62 131 
62 134 
62 135 
62 138 
62 139 
62 141 
62 144 
62 146 
62 147 
62 150 
62 152 
62 153 
62 155 
62 158 
62 160 
63 64 
63 81 
63 84 
63 85 
63 87 
63 90 
63 92 
63 93 
63 96 
63 98 
63 100 
63 102 
63 104 
63 105 
63 108 
63 109 
63 111 
63 113 
63 116 
63 118 
63 119 
63 121 
63 124 
63 125 
63 128 
63 129 
63 131 
63 133 
63 135 
63 138 
63 139 
63 142 
63 143 
63 145 
63 148 
63 149 
63 151 
63 154 
63 156 
63 158 
63 160 
64 82 
64 83 
64 86 
64 88 
64 89 
64 91 
64 94 
64 95 
64 97 
64 99 
64 101 
64 103 
64 106 
64 107 
64 110 
64 112 
64 114 
64 115 
64 117 
64 120 
64 122 
64 123 
64 126 
64 127 
64 130 
64 132 
64 134 
64 136 
64 137 
64 140 
64 141 
64 144 
64 146 
64 147 
64 150 
64 152 
64 153 
64 155 
64 157 
64 159 
65 66 
65 82 
65 83 
65 86 
65 88 
65 89 
65 92 
65 93 
65 95 
65 97 
65 100 
65 101 
65 103 
65 106 
65 107 
65 109 
65 111 
65 114 
65 115 
65 118 
65 119 
65 122 
65 124 
65 125 
65 128 
65 129 
65 132 
65 134 
65 135 
65 137 
65 139 
65 142 
65 143 
65 146 
65 148 
65 149 
65 152 
65 154 
65 156 
65 157 
65 160 
66 81 
66 84 
66 85 
66 87 
66 90 
66 91 
66 94 
66 96 
66 98 
66 99 
66 102 
66 104 
66 105 
66 108 
66 110 
66 112 
66 113 
66 116 
66 117 
66 120 
66 121 
66 123 
66 126 
66 127 
66 130 
66 131 
66 133 
66 136 
66 138 
66 140 
66 141 
66 144 
66 145 
66 147 
66 150 
66 151 
66 153 
66 155 
66 158 
66 159 
67 68 
67 82 
67 84 
67 85 
67 88 
67 90 
67 92 
67 94 
67 95 
67 97 
67 99 
67 102 
67 103 
67 105 
67 107 
67 109 
67 112 
67 114 
67 116 
67 117 
67 120 
67 121 
67 124 
67 125 
67 127 
67 130 
67 131 
67 134 
67 135 
67 137 
67 139 
67 142 
67 143 
67 146 
67 147 
67 150 
67 151 
67 154 
67 155 
67 158 
67 160 
68 81 
68 83 
68 86 
68 87 
68 89 
68 91 
68 93 
68 96 
68 98 
68 100 
68 101 
68 104 
68 106 
68 108 
68 110 
68 111 
68 113 
68 115 
68 118 
68 119 
68 122 
68 123 
68 126 
68 128 
68 129 
68 132 
68 133 
68 136 
68 138 
68 140 
68 141 
68 144 
68 145 
68 148 
68 149 
68 152 
68 153 
68 156 
68 157 
68 159 
69 70 
69 82 
69 84 
69 85 
69 88 
69 90 
69 92 
69 94 
69 96 
69 98 
69 100 
69 102 
69 104 
69 106 
69 108 
69 109 
69 112 
69 114 
69 115 
69 118 
69 120 
69 122 
69 124 
69 126 
69 127 
69 130 
69 132 
69 134 
69 136 
69 138 
69 139 
69 142 
69 143 
69 145 
69 148 
69 150 
69 152 
69 153 
69 156 
69 157 
69 159 
70 81 
70 83 
70 86 
70 87 
70 89 
70 91 
70 93 
70 95 
70 97 
70 99 
70 101 
70 103 
70 105 
70 107 
70 110 
70 111 
70 113 
70 116 
70 117 
70 119 
70 121 
70 123 
70 125 
70 128 
70 129 
70 131 
70 133 
70 135 
70 137 
70 140 
70 141 
70 144 
70 146 
70 147 
70 149 
70 151 
70 154 
70 155 
70 158 
70 160 
71 72 
71 82 
71 83 
71 86 
71 87 
71 89 
71 91 
71 94 
71 95 
71 98 
71 99 
71 102 
71 103 
71 105 
71 107 
71 109 
71 111 
71 114 
71 116 
71 118 
71 119 
71 122 
71 123 
71 126 
71 127 
71 129 
71 131 
71 134 
71 136 
71 138 
71 140 
71 142 
71 143 
71 145 
71 148 
71 150 
71 151 
71 153 
71 156 
71 158 
71 160 
72 81 
72 84 
72 85 
72 88 
72 90 
72 92 
72 93 
72 96 
72 97 
72 100 
72 101 
72 104 
72 106 
72 108 
72 110 
72 112 
72 113 
72 115 
72 117 
72 120 
72 121 
72 124 
72 125 
72 128 
72 130 
72 132 
72 133 
72 135 
72 137 
72 139 
72 141 
72 144 
72 146 
72 147 
72 149 
72 152 
72 154 
72 155 
72 157 
72 159 
73 74 
73 82 
73 83 
73 86 
73 88 
73 89 
73 91 
73 93 
73 96 
73 98 
73 100 
73 101 
73 104 
73 105 
73 107 
73 110 
73 112 
73 114 
73 116 
73 117 
73 119 
73 121 
73 124 
73 125 
73 128 
73 130 
73 131 
73 134 
73 136 
73 138 
73 139 
73 142 
73 143 
73 145 
73 147 
73 149 
73 152 
73 153 
73 155 
73 158 
73 159 
74 81 
74 84 
74 85 
74 87 
74 90 
74 92 
74 94 
74 95 
74 97 
74 99 
74 102 
74 103 
74 106 
74 108 
74 109 
74 111 
74 113 
74 115 
74 118 
74 120 
74 122 
74 123 
74 126 
74 127 
74 129 
74 132 
74 133 
74 135 
74 137 
74 140 
74 141 
74 144 
74 146 
74 148 
74 150 
74 151 
74 154 
74 156 
74 157 
74 160 
75 76 
75 81 
75 83 
75 86 
75 88 
75 89 
75 91 
75 94 
75 96 
75 97 
75 99 
75 102 
75 104 
75 105 
75 108 
75 109 
75 111 
75 114 
75 116 
75 117 
75 120 
75 121 
75 124 
75 126 
75 128 
75 130 
75 132 
75 134 
75 135 
75 137 
75 139 
75 141 
75 144 
75 145 
75 148 
75 149 
75 151 
75 153 
75 156 
75 157 
75 160 
76 82 
76 84 
76 85 
76 87 
76 90 
76 92 
76 93 
76 95 
76 98 
76 100 
76 101 
76 103 
76 106 
76 107 
76 110 
76 112 
76 113 
76 115 
76 118 
76 119 
76 122 
76 123 
76 125 
76 127 
76 129 
76 131 
76 133 
76 136 
76 138 
76 140 
76 142 
76 143 
76 146 
76 147 
76 150 
76 152 
76 154 
76 155 
76 158 
76 159 
77 78 
77 81 
77 84 
77 86 
77 88 
77 89 
77 92 
77 94 
77 95 
77 97 
77 100 
77 101 
77 104 
77 105 
77 107 
77 110 
77 111 
77 113 
77 116 
77 118 
77 120 
77 121 
77 124 
77 126 
77 127 
77 129 
77 131 
77 134 
77 135 
77 138 
77 140 
77 141 
77 143 
77 145 
77 147 
77 150 
77 152 
77 154 
77 156 
77 157 
77 159 
78 82 
78 83 
78 85 
78 87 
78 90 
78 91 
78 93 
78 96 
78 98 
78 99 
78 102 
78 103 
78 106 
78 108 
78 109 
78 112 
78 114 
78 115 
78 117 
78 119 
78 122 
78 123 
78 125 
78 128 
78 130 
78 132 
78 133 
78 136 
78 137 
78 139 
78 142 
78 144 
78 146 
78 148 
78 149 
78 151 
78 153 
78 155 
78 158 
78 160 
79 80 
79 81 
79 84 
79 86 
79 88 
79 90 
79 91 
79 93 
79 95 
79 98 
79 99 
79 101 
79 104 
79 105 
79 108 
79 110 
79 112 
79 113 
79 116 
79 118 
79 119 
79 122 
79 124 
79 125 
79 127 
79 129 
79 132 
79 134 
79 136 
79 137 
79 139 
79 141 
79 143 
79 146 
79 148 
79 150 
79 151 
79 153 
79 155 
79 157 
79 160 
80 82 
80 83 
80 85 
80 87 
80 89 
80 92 
80 94 
80 96 
80 97 
80 100 
80 102 
80 103 
80 106 
80 107 
80 109 
80 111 
80 114 
80 115 
80 117 
80 120 
80 121 
80 123 
80 126 
80 128 
80 130 
80 131 
80 133 
80 135 
80 138 
80 140 
80 142 
80 144 
80 145 
80 147 
80 149 
80 152 
80 154 
80 156 
80 158 
80 159 
81 82 
83 84 
85 86 
87 88 
89 90 
91 92 
93 94 
95 96 
97 98 
99 100 
101 102 
103 104 
105 106 
107 108 
109 110 
111 112 
113 114 
115 116 
117 118 
119 120 
121 122 
123 124 
125 126 
127 128 
129 130 
131 132 
133 134 
135 136 
137 138 
139 140 
141 142 
143 144 
145 146 
147 148 
149 150 
151 152 
153 154 
155 156 
157 158 
159 160 
